p cnf 10 45
9 -5 -6 
-9 1 4 
10 3 6 
-1 -7 -8 
-2 -5 -2 
1 8 -2 
6 -9 3 
-10 -3 -7 
-10 -3 -8 
-7 -4 -7 
4 -2 -6 
-3 10 1 
-10 -2 4 
-7 2 7 
7 7 3 
-10 -6 7 
-4 7 -7 
-7 2 7 
-2 6 -9 
-8 -1 10 
-8 7 8 
4 -7 4 
-7 -1 -1 
-2 10 5 
4 3 4 
2 -9 8 
5 10 -7 
-3 6 -7 
-4 -5 2 
2 -9 10 
8 -7 -3 
-1 9 -9 
-8 4 -5 
-6 -8 7 
-6 8 9 
-7 4 9 
10 9 -6 
-6 -5 -6 
10 6 8 
-8 8 7 
1 7 -5 
2 2 -9 
-7 5 3 
2 -9 -6 
8 -3 1 
